Problem:    guia3_6
Rows:       36
Columns:    21 (10 integer, 10 binary)
Non-zeros:  105
Status:     INTEGER OPTIMAL
Objective:  Z = 5000 (MAXimum)

   No.   Row name        Activity     Lower bound   Upper bound
------ ------------    ------------- ------------- -------------
     1 Z                        5000                             
     2 tiposAceites                1                           3 
     3 usoABMin                    0                          -0 
     4 usoABMax                    0                          -0 
     5 usoABentoncesC
                                   0                          -0 
     6 intervalo1Min
                            -83.3233                          -0 
     7 intervalo1Max
                            -16.5667                          -0 
     8 intervalo2Min
                                   0                          -0 
     9 intervalo2Max
                                   0                          -0 
    10 intervalo3Min
                                   0                          -0 
    11 intervalo3Max
                                   0                          -0 
    12 intervalo4Min
                                   0                          -0 
    13 intervalo4Max
                                   0                          -0 
    14 intervalosPosibles
                                   1             1             = 
    15 horasMaquinaUsadas
                                   0            -0             = 
    16 horasUso                    0            -0             = 
    17 refinadoAB                  0                         200 
    18 refinadoCDE               250                         250 
    19 durezaMin               -1050                          -3 
    20 durezaMax                 4.2                           6 
    21 usoCrudo[A]                 0            -0               
    22 usoCrudo[B]                 0            -0               
    23 usoCrudo[C]                 0            -0               
    24 usoCrudo[D]               230            -0               
    25 usoCrudo[E]                 0            -0               
    26 crudos                      0            -0             = 
    27 relacionXYMin[A]
                                   0                          -0 
    28 relacionXYMin[B]
                                   0                          -0 
    29 relacionXYMin[C]
                                   0                          -0 
    30 relacionXYMin[D]
                             -249.99                          -0 
    31 relacionXYMin[E]
                                   0                          -0 
    32 relacionXYMax[A]
                                   0                          -0 
    33 relacionXYMax[B]
                                   0                          -0 
    34 relacionXYMax[C]
                                   0                          -0 
    35 relacionXYMax[D]
                              -19750                          -0 
    36 relacionXYMax[E]
                                   0                          -0 

   No. Column name       Activity     Lower bound   Upper bound
------ ------------    ------------- ------------- -------------
     1 Y[A]         *              0             0             1 
     2 Y[B]         *              0             0             1 
     3 Y[C]         *              0             0             1 
     4 Y[D]         *              1             0             1 
     5 Y[E]         *              0             0             1 
     6 X[A]                        0             0               
     7 X[B]                        0             0               
     8 X[C]                        0             0               
     9 X[D]                      250             0               
    10 X[E]                        0             0               
    11 YH[H1]       *              1             0             1 
    12 YH[H2]       *              0             0             1 
    13 YH[H3]       *              0             0             1 
    14 YH[H4]       *              0             0             1 
    15 H[H1]                 83.3333             0               
    16 H[H2]                       0             0               
    17 H[H3]                       0             0               
    18 H[H4]                       0             0               
    19 HO                    83.3333             0               
    20 AB           *              0             0             1 
    21 AC                        250             0               

Integer feasibility conditions:

KKT.PE: max.abs.err = 0.00e+00 on row 0
        max.rel.err = 0.00e+00 on row 0
        High quality

KKT.PB: max.abs.err = 2.84e-14 on row 16
        max.rel.err = 2.84e-14 on row 16
        High quality

End of output
